
50
126943

7830 6821
1916 917
7167 6179
9425 8420
9327 8346
6149 5151
7313 6311
4673 3693
6287 5281
2062 1079
7836 6830
7000 6007
3801 2820
4806 3786
8344 7362
5425 4439
10597 9597
10703 9713
9385 8384
1910 911
1755 752
3888 2886
4604 3612
8038 7050
9277 8269
6624 5627
7393 6392
6748 5731
1321 341
6258 5267
3136 2133
5152 4170
1098 88
7554 6558
10095 9103
1674 687
6820 5801
1216 235
4532 3519
2601 1593
9622 8606
8289 7281
9960 8966
3182 2180
8206 7189
7976 6995
6121 5107
10169 9162
7238 6250
3848 2829
